3 
4 
5  04 19 34 49 
6  04 16 23 31 38 44 52 59 
7  07 14 22 29 37 44 52 59 
8  07 14 22 29 37 44 52 59 
9  07 14 22 29 37 44 52 59 
10  07 14 22 29 37 44 52 59 
11  07 14 22 29 37 44 52 59 
12  07 14 22 29 37 44 52 59 
13  06 13 21 28 36 43 51 58 
14  06 13 21 28 36 43 51 58 
15  05 13 20 28 35 43 50 58 
16  05 13 20 28 35 43 50 58 
17  05 13 20 28 35 43 50 58 
18  05 13 20 28 35 43 50 58 
19  05 14 22 30 37 45 53 
20  00 07 15 22 35 50 
21  05 20 35 50 
22  05 18 33 46 59 
23 
0 
